p cnf 484 1
484 0
w 1 0.147499
w 2 1 1
w 2 -1 0
w 3 2 1
w 3 -2 0
w 4 3 1
w 4 -3 0
w 5 4 0
w 5 -4 1
w 6 5 0
w 6 -5 1
w 7 6 0.155866
w 7 -6 0.823407
w 8 7 0
w 8 -7 1
w 9 8 0
w 9 -8 1
w 10 9 0.49629
w 10 -9 0.517908
w 11 10 0.640053
w 11 -10 0.733973
w 12 11 0
w 12 -11 1
w 13 12 0.00837621
w 13 -12 0.398131
w 14 13 1
w 14 -13 0
w 15 14 0
w 15 -14 1
w 16 15 0
w 16 -15 1
w 17 16 0.308905
w 17 -16 0.885556
w 18 17 0
w 18 -17 1
w 19 18 1
w 19 -18 0
w 20 19 0.679043
w 20 -19 0.154686
w 21 20 0.477938
w 21 -20 0.728345
w 22 21 0
w 22 -21 1
w 23 1 1
w 23 -1 0
w 24 23 2 0
w 24 23 -2 0
w 24 -23 2 0
w 24 -23 -2 1
w 25 24 3 0
w 25 24 -3 0
w 25 -24 3 0
w 25 -24 -3 1
w 26 25 4 0
w 26 25 -4 1
w 26 -25 4 0
w 26 -25 -4 0
w 27 26 5 1
w 27 26 -5 1
w 27 -26 5 0
w 27 -26 -5 0
w 28 27 6 0.473221
w 28 27 -6 0.0916628
w 28 -27 6 0.956615
w 28 -27 -6 0.385611
w 29 28 7 1
w 29 28 -7 1
w 29 -28 7 0
w 29 -28 -7 1
w 30 29 8 1
w 30 29 -8 1
w 30 -29 8 0
w 30 -29 -8 1
w 31 30 9 0.546166
w 31 30 -9 0.951727
w 31 -30 9 0.864355
w 31 -30 -9 0.150296
w 32 31 10 1
w 32 31 -10 0
w 32 -31 10 0
w 32 -31 -10 0
w 33 32 11 0
w 33 32 -11 0
w 33 -32 11 0
w 33 -32 -11 1
w 34 33 12 0
w 34 33 -12 0
w 34 -33 12 1
w 34 -33 -12 0
w 35 34 13 0
w 35 34 -13 0
w 35 -34 13 0
w 35 -34 -13 1
w 36 35 14 1
w 36 35 -14 0
w 36 -35 14 1
w 36 -35 -14 0
w 37 36 15 0.973539
w 37 36 -15 0.864971
w 37 -36 15 0.863
w 37 -36 -15 0.123835
w 38 37 16 0
w 38 37 -16 1
w 38 -37 16 0
w 38 -37 -16 1
w 39 38 17 0.617622
w 39 38 -17 0.690056
w 39 -38 17 0.487981
w 39 -38 -17 0.208717
w 40 39 18 0
w 40 39 -18 0
w 40 -39 18 0
w 40 -39 -18 1
w 41 40 19 1
w 41 40 -19 0
w 41 -40 19 0
w 41 -40 -19 1
w 42 41 20 0
w 42 41 -20 0
w 42 -41 20 0
w 42 -41 -20 1
w 43 42 21 0
w 43 42 -21 1
w 43 -42 21 1
w 43 -42 -21 0
w 44 43 22 0
w 44 43 -22 0
w 44 -43 22 1
w 44 -43 -22 0
w 45 23 0
w 45 -23 1
w 46 45 24 1
w 46 45 -24 0
w 46 -45 24 0
w 46 -45 -24 0
w 47 46 25 0
w 47 46 -25 0
w 47 -46 25 0
w 47 -46 -25 1
w 48 47 26 0.880236
w 48 47 -26 0.0181468
w 48 -47 26 0.412816
w 48 -47 -26 0.760601
w 49 48 27 1
w 49 48 -27 0
w 49 -48 27 1
w 49 -48 -27 1
w 50 49 28 1
w 50 49 -28 1
w 50 -49 28 0
w 50 -49 -28 1
w 51 50 29 1
w 51 50 -29 1
w 51 -50 29 1
w 51 -50 -29 0
w 52 51 30 1
w 52 51 -30 0
w 52 -51 30 0
w 52 -51 -30 0
w 53 52 31 1
w 53 52 -31 0
w 53 -52 31 1
w 53 -52 -31 0
w 54 53 32 0.936015
w 54 53 -32 0.960556
w 54 -53 32 0.27607
w 54 -53 -32 0.696616
w 55 54 33 1
w 55 54 -33 1
w 55 -54 33 1
w 55 -54 -33 0
w 56 55 34 0
w 56 55 -34 1
w 56 -55 34 1
w 56 -55 -34 0
w 57 56 35 1
w 57 56 -35 0
w 57 -56 35 0
w 57 -56 -35 1
w 58 57 36 0
w 58 57 -36 1
w 58 -57 36 0
w 58 -57 -36 1
w 59 58 37 0.102776
w 59 58 -37 0.846134
w 59 -58 37 0.991419
w 59 -58 -37 0.045185
w 60 59 38 0
w 60 59 -38 1
w 60 -59 38 0
w 60 -59 -38 0
w 61 60 39 1
w 61 60 -39 1
w 61 -60 39 0
w 61 -60 -39 0
w 62 61 40 1
w 62 61 -40 1
w 62 -61 40 1
w 62 -61 -40 0
w 63 62 41 0
w 63 62 -41 1
w 63 -62 41 1
w 63 -62 -41 0
w 64 63 42 1
w 64 63 -42 1
w 64 -63 42 0
w 64 -63 -42 0
w 65 64 43 0
w 65 64 -43 1
w 65 -64 43 1
w 65 -64 -43 0
w 66 65 44 1
w 66 65 -44 1
w 66 -65 44 0
w 66 -65 -44 1
w 67 45 1
w 67 -45 0
w 68 67 46 0
w 68 67 -46 0
w 68 -67 46 1
w 68 -67 -46 1
w 69 68 47 0
w 69 68 -47 0
w 69 -68 47 1
w 69 -68 -47 0
w 70 69 48 1
w 70 69 -48 0
w 70 -69 48 1
w 70 -69 -48 1
w 71 70 49 0.930873
w 71 70 -49 0.34329
w 71 -70 49 0.920641
w 71 -70 -49 0.458523
w 72 71 50 1
w 72 71 -50 0
w 72 -71 50 0
w 72 -71 -50 1
w 73 72 51 0
w 73 72 -51 0
w 73 -72 51 0
w 73 -72 -51 1
w 74 73 52 0.114235
w 74 73 -52 0.155594
w 74 -73 52 0.917351
w 74 -73 -52 0.821078
w 75 74 53 0
w 75 74 -53 0
w 75 -74 53 1
w 75 -74 -53 1
w 76 75 54 1
w 76 75 -54 0
w 76 -75 54 1
w 76 -75 -54 0
w 77 76 55 0
w 77 76 -55 1
w 77 -76 55 0
w 77 -76 -55 0
w 78 77 56 1
w 78 77 -56 1
w 78 -77 56 1
w 78 -77 -56 0
w 79 78 57 0
w 79 78 -57 1
w 79 -78 57 1
w 79 -78 -57 0
w 80 79 58 0
w 80 79 -58 0
w 80 -79 58 1
w 80 -79 -58 0
w 81 80 59 0.796451
w 81 80 -59 0.871578
w 81 -80 59 0.935782
w 81 -80 -59 0.896068
w 82 81 60 1
w 82 81 -60 1
w 82 -81 60 1
w 82 -81 -60 0
w 83 82 61 0.690514
w 83 82 -61 0.910505
w 83 -82 61 0.000187042
w 83 -82 -61 0.635333
w 84 83 62 0.423048
w 84 83 -62 0.430045
w 84 -83 62 0.588698
w 84 -83 -62 0.236329
w 85 84 63 0
w 85 84 -63 1
w 85 -84 63 0
w 85 -84 -63 1
w 86 85 64 1
w 86 85 -64 1
w 86 -85 64 1
w 86 -85 -64 0
w 87 86 65 0.596618
w 87 86 -65 0.232226
w 87 -86 65 0.777964
w 87 -86 -65 0.532401
w 88 87 66 1
w 88 87 -66 0
w 88 -87 66 1
w 88 -87 -66 1
w 89 67 0
w 89 -67 1
w 90 89 68 1
w 90 89 -68 0
w 90 -89 68 0
w 90 -89 -68 1
w 91 90 69 0
w 91 90 -69 1
w 91 -90 69 0
w 91 -90 -69 1
w 92 91 70 1
w 92 91 -70 0
w 92 -91 70 0
w 92 -91 -70 0
w 93 92 71 1
w 93 92 -71 0
w 93 -92 71 1
w 93 -92 -71 0
w 94 93 72 0.76951
w 94 93 -72 0.669916
w 94 -93 72 0.993291
w 94 -93 -72 0.0271549
w 95 94 73 1
w 95 94 -73 0
w 95 -94 73 0
w 95 -94 -73 0
w 96 95 74 1
w 96 95 -74 0
w 96 -95 74 0
w 96 -95 -74 0
w 97 96 75 1
w 97 96 -75 0
w 97 -96 75 0
w 97 -96 -75 0
w 98 97 76 1
w 98 97 -76 1
w 98 -97 76 0
w 98 -97 -76 1
w 99 98 77 0
w 99 98 -77 0
w 99 -98 77 1
w 99 -98 -77 1
w 100 99 78 1
w 100 99 -78 1
w 100 -99 78 0
w 100 -99 -78 1
w 101 100 79 1
w 101 100 -79 1
w 101 -100 79 0
w 101 -100 -79 1
w 102 101 80 0.934538
w 102 101 -80 0.98727
w 102 -101 80 0.711158
w 102 -101 -80 0.749993
w 103 102 81 1
w 103 102 -81 0
w 103 -102 81 1
w 103 -102 -81 1
w 104 103 82 1
w 104 103 -82 0
w 104 -103 82 1
w 104 -103 -82 1
w 105 104 83 0.112431
w 105 104 -83 0.61525
w 105 -104 83 0.992851
w 105 -104 -83 0.33301
w 106 105 84 0
w 106 105 -84 1
w 106 -105 84 1
w 106 -105 -84 1
w 107 106 85 1
w 107 106 -85 0
w 107 -106 85 0
w 107 -106 -85 1
w 108 107 86 1
w 108 107 -86 0
w 108 -107 86 1
w 108 -107 -86 1
w 109 108 87 0
w 109 108 -87 0
w 109 -108 87 1
w 109 -108 -87 1
w 110 109 88 0
w 110 109 -88 0
w 110 -109 88 0
w 110 -109 -88 1
w 111 89 1
w 111 -89 0
w 112 111 90 0
w 112 111 -90 1
w 112 -111 90 0
w 112 -111 -90 1
w 113 112 91 1
w 113 112 -91 0
w 113 -112 91 1
w 113 -112 -91 0
w 114 113 92 0.242663
w 114 113 -92 0.24761
w 114 -113 92 0.291424
w 114 -113 -92 0.332901
w 115 114 93 1
w 115 114 -93 0
w 115 -114 93 1
w 115 -114 -93 0
w 116 115 94 1
w 116 115 -94 0
w 116 -115 94 0
w 116 -115 -94 0
w 117 116 95 0
w 117 116 -95 0
w 117 -116 95 1
w 117 -116 -95 0
w 118 117 96 1
w 118 117 -96 0
w 118 -117 96 1
w 118 -117 -96 1
w 119 118 97 1
w 119 118 -97 1
w 119 -118 97 0
w 119 -118 -97 0
w 120 119 98 0
w 120 119 -98 0
w 120 -119 98 0
w 120 -119 -98 1
w 121 120 99 0
w 121 120 -99 1
w 121 -120 99 0
w 121 -120 -99 1
w 122 121 100 0.073613
w 122 121 -100 0.516345
w 122 -121 100 0.931287
w 122 -121 -100 0.645068
w 123 122 101 0.489934
w 123 122 -101 0.585261
w 123 -122 101 0.748056
w 123 -122 -101 0.0505271
w 124 123 102 0.754477
w 124 123 -102 0.725498
w 124 -123 102 0.144176
w 124 -123 -102 0.957727
w 125 124 103 0.614505
w 125 124 -103 0.650222
w 125 -124 103 0.836185
w 125 -124 -103 0.917847
w 126 125 104 0
w 126 125 -104 1
w 126 -125 104 0
w 126 -125 -104 0
w 127 126 105 0
w 127 126 -105 0
w 127 -126 105 1
w 127 -126 -105 0
w 128 127 106 1
w 128 127 -106 0
w 128 -127 106 1
w 128 -127 -106 0
w 129 128 107 0.161797
w 129 128 -107 0.954816
w 129 -128 107 0.532917
w 129 -128 -107 0.909853
w 130 129 108 1
w 130 129 -108 0
w 130 -129 108 1
w 130 -129 -108 0
w 131 130 109 1
w 131 130 -109 1
w 131 -130 109 0
w 131 -130 -109 0
w 132 131 110 1
w 132 131 -110 0
w 132 -131 110 1
w 132 -131 -110 1
w 133 111 0.945663
w 133 -111 0.839357
w 134 133 112 1
w 134 133 -112 1
w 134 -133 112 0
w 134 -133 -112 0
w 135 134 113 0.44187
w 135 134 -113 0.42488
w 135 -134 113 0.917179
w 135 -134 -113 0.396686
w 136 135 114 0.827031
w 136 135 -114 0.402029
w 136 -135 114 0.370594
w 136 -135 -114 0.491361
w 137 136 115 0
w 137 136 -115 0
w 137 -136 115 1
w 137 -136 -115 0
w 138 137 116 1
w 138 137 -116 0
w 138 -137 116 0
w 138 -137 -116 0
w 139 138 117 1
w 139 138 -117 0
w 139 -138 117 0
w 139 -138 -117 1
w 140 139 118 0.579805
w 140 139 -118 0.0184358
w 140 -139 118 0.497944
w 140 -139 -118 0.556793
w 141 140 119 0
w 141 140 -119 1
w 141 -140 119 1
w 141 -140 -119 1
w 142 141 120 0
w 142 141 -120 1
w 142 -141 120 0
w 142 -141 -120 0
w 143 142 121 1
w 143 142 -121 1
w 143 -142 121 0
w 143 -142 -121 0
w 144 143 122 1
w 144 143 -122 0
w 144 -143 122 1
w 144 -143 -122 1
w 145 144 123 1
w 145 144 -123 0
w 145 -144 123 0
w 145 -144 -123 1
w 146 145 124 0
w 146 145 -124 1
w 146 -145 124 0
w 146 -145 -124 0
w 147 146 125 1
w 147 146 -125 0
w 147 -146 125 0
w 147 -146 -125 0
w 148 147 126 0
w 148 147 -126 1
w 148 -147 126 0
w 148 -147 -126 1
w 149 148 127 0.23521
w 149 148 -127 0.220184
w 149 -148 127 0.58618
w 149 -148 -127 0.877021
w 150 149 128 0
w 150 149 -128 0
w 150 -149 128 0
w 150 -149 -128 1
w 151 150 129 0
w 151 150 -129 1
w 151 -150 129 1
w 151 -150 -129 1
w 152 151 130 1
w 152 151 -130 0
w 152 -151 130 1
w 152 -151 -130 1
w 153 152 131 1
w 153 152 -131 0
w 153 -152 131 1
w 153 -152 -131 1
w 154 153 132 1
w 154 153 -132 0
w 154 -153 132 1
w 154 -153 -132 1
w 155 133 0
w 155 -133 1
w 156 155 134 1
w 156 155 -134 1
w 156 -155 134 1
w 156 -155 -134 0
w 157 156 135 0.129817
w 157 156 -135 0.360325
w 157 -156 135 0.186587
w 157 -156 -135 0.272618
w 158 157 136 0
w 158 157 -136 0
w 158 -157 136 0
w 158 -157 -136 1
w 159 158 137 0
w 159 158 -137 0
w 159 -158 137 1
w 159 -158 -137 0
w 160 159 138 1
w 160 159 -138 1
w 160 -159 138 1
w 160 -159 -138 0
w 161 160 139 0.474244
w 161 160 -139 0.718601
w 161 -160 139 0.608568
w 161 -160 -139 0.186418
w 162 161 140 1
w 162 161 -140 1
w 162 -161 140 0
w 162 -161 -140 1
w 163 162 141 1
w 163 162 -141 1
w 163 -162 141 0
w 163 -162 -141 1
w 164 163 142 1
w 164 163 -142 0
w 164 -163 142 0
w 164 -163 -142 1
w 165 164 143 0
w 165 164 -143 1
w 165 -164 143 0
w 165 -164 -143 1
w 166 165 144 0.642553
w 166 165 -144 0.480474
w 166 -165 144 0.648346
w 166 -165 -144 0.988845
w 167 166 145 1
w 167 166 -145 1
w 167 -166 145 1
w 167 -166 -145 0
w 168 167 146 0
w 168 167 -146 1
w 168 -167 146 1
w 168 -167 -146 1
w 169 168 147 1
w 169 168 -147 1
w 169 -168 147 1
w 169 -168 -147 0
w 170 169 148 0
w 170 169 -148 1
w 170 -169 148 1
w 170 -169 -148 0
w 171 170 149 0.167368
w 171 170 -149 0.393863
w 171 -170 149 0.246174
w 171 -170 -149 0.530976
w 172 171 150 0
w 172 171 -150 0
w 172 -171 150 0
w 172 -171 -150 1
w 173 172 151 1
w 173 172 -151 0
w 173 -172 151 1
w 173 -172 -151 0
w 174 173 152 0.0155691
w 174 173 -152 0.0223062
w 174 -173 152 0.747611
w 174 -173 -152 0.456143
w 175 174 153 0
w 175 174 -153 1
w 175 -174 153 0
w 175 -174 -153 0
w 176 175 154 1
w 176 175 -154 0
w 176 -175 154 0
w 176 -175 -154 0
w 177 155 0
w 177 -155 1
w 178 177 156 0.54272
w 178 177 -156 0.863874
w 178 -177 156 0.0244503
w 178 -177 -156 0.716249
w 179 178 157 0.821381
w 179 178 -157 0.878623
w 179 -178 157 0.412357
w 179 -178 -157 0.740901
w 180 179 158 0
w 180 179 -158 1
w 180 -179 158 0
w 180 -179 -158 0
w 181 180 159 0.399438
w 181 180 -159 0.373278
w 181 -180 159 0.165136
w 181 -180 -159 0.931751
w 182 181 160 0
w 182 181 -160 1
w 182 -181 160 0
w 182 -181 -160 1
w 183 182 161 0
w 183 182 -161 1
w 183 -182 161 1
w 183 -182 -161 1
w 184 183 162 0
w 184 183 -162 1
w 184 -183 162 0
w 184 -183 -162 1
w 185 184 163 0.229926
w 185 184 -163 0.586585
w 185 -184 163 0.859675
w 185 -184 -163 0.642283
w 186 185 164 0
w 186 185 -164 0
w 186 -185 164 1
w 186 -185 -164 0
w 187 186 165 0
w 187 186 -165 1
w 187 -186 165 1
w 187 -186 -165 1
w 188 187 166 1
w 188 187 -166 1
w 188 -187 166 0
w 188 -187 -166 0
w 189 188 167 0
w 189 188 -167 0
w 189 -188 167 1
w 189 -188 -167 1
w 190 189 168 1
w 190 189 -168 0
w 190 -189 168 0
w 190 -189 -168 0
w 191 190 169 0.878543
w 191 190 -169 0.245625
w 191 -190 169 0.782714
w 191 -190 -169 0.520826
w 192 191 170 0
w 192 191 -170 1
w 192 -191 170 1
w 192 -191 -170 0
w 193 192 171 0
w 193 192 -171 0
w 193 -192 171 0
w 193 -192 -171 1
w 194 193 172 0.738716
w 194 193 -172 0.0997868
w 194 -193 172 0.954288
w 194 -193 -172 0.983475
w 195 194 173 0.242481
w 195 194 -173 0.938574
w 195 -194 173 0.791166
w 195 -194 -173 0.395562
w 196 195 174 1
w 196 195 -174 0
w 196 -195 174 0
w 196 -195 -174 1
w 197 196 175 0.480781
w 197 196 -175 0.672999
w 197 -196 175 0.194062
w 197 -196 -175 0.263495
w 198 197 176 0
w 198 197 -176 1
w 198 -197 176 0
w 198 -197 -176 1
w 199 177 1
w 199 -177 0
w 200 199 178 0.61526
w 200 199 -178 0.144081
w 200 -199 178 0.408342
w 200 -199 -178 0.516552
w 201 200 179 0.508128
w 201 200 -179 0.47084
w 201 -200 179 0.866273
w 201 -200 -179 0.37469
w 202 201 180 1
w 202 201 -180 0
w 202 -201 180 1
w 202 -201 -180 1
w 203 202 181 1
w 203 202 -181 0
w 203 -202 181 0
w 203 -202 -181 1
w 204 203 182 1
w 204 203 -182 1
w 204 -203 182 1
w 204 -203 -182 0
w 205 204 183 0
w 205 204 -183 1
w 205 -204 183 0
w 205 -204 -183 0
w 206 205 184 0
w 206 205 -184 1
w 206 -205 184 1
w 206 -205 -184 1
w 207 206 185 0
w 207 206 -185 1
w 207 -206 185 1
w 207 -206 -185 1
w 208 207 186 0
w 208 207 -186 0
w 208 -207 186 1
w 208 -207 -186 1
w 209 208 187 0
w 209 208 -187 1
w 209 -208 187 1
w 209 -208 -187 1
w 210 209 188 1
w 210 209 -188 1
w 210 -209 188 1
w 210 -209 -188 0
w 211 210 189 0
w 211 210 -189 0
w 211 -210 189 0
w 211 -210 -189 1
w 212 211 190 0
w 212 211 -190 0
w 212 -211 190 1
w 212 -211 -190 1
w 213 212 191 0
w 213 212 -191 1
w 213 -212 191 1
w 213 -212 -191 1
w 214 213 192 0
w 214 213 -192 0
w 214 -213 192 1
w 214 -213 -192 1
w 215 214 193 1
w 215 214 -193 0
w 215 -214 193 1
w 215 -214 -193 1
w 216 215 194 0
w 216 215 -194 0
w 216 -215 194 0
w 216 -215 -194 1
w 217 216 195 1
w 217 216 -195 1
w 217 -216 195 0
w 217 -216 -195 1
w 218 217 196 0.692468
w 218 217 -196 0.119571
w 218 -217 196 0.067059
w 218 -217 -196 0.441676
w 219 218 197 0.29295
w 219 218 -197 0.188908
w 219 -218 197 0.285561
w 219 -218 -197 0.716891
w 220 219 198 1
w 220 219 -198 1
w 220 -219 198 1
w 220 -219 -198 0
w 221 199 1
w 221 -199 0
w 222 221 200 0.144796
w 222 221 -200 0.217503
w 222 -221 200 0.357323
w 222 -221 -200 0.457461
w 223 222 201 1
w 223 222 -201 1
w 223 -222 201 0
w 223 -222 -201 1
w 224 223 202 0.809551
w 224 223 -202 0.386585
w 224 -223 202 0.199138
w 224 -223 -202 0.682911
w 225 224 203 0
w 225 224 -203 1
w 225 -224 203 0
w 225 -224 -203 0
w 226 225 204 0
w 226 225 -204 0
w 226 -225 204 1
w 226 -225 -204 1
w 227 226 205 1
w 227 226 -205 0
w 227 -226 205 1
w 227 -226 -205 0
w 228 227 206 0.660524
w 228 227 -206 0.755345
w 228 -227 206 0.986144
w 228 -227 -206 0.0178474
w 229 228 207 1
w 229 228 -207 1
w 229 -228 207 0
w 229 -228 -207 1
w 230 229 208 0.479391
w 230 229 -208 0.790134
w 230 -229 208 0.144363
w 230 -229 -208 0.678529
w 231 230 209 1
w 231 230 -209 0
w 231 -230 209 1
w 231 -230 -209 1
w 232 231 210 1
w 232 231 -210 1
w 232 -231 210 0
w 232 -231 -210 1
w 233 232 211 0.436135
w 233 232 -211 0.361514
w 233 -232 211 0.777245
w 233 -232 -211 0.046684
w 234 233 212 0
w 234 233 -212 1
w 234 -233 212 0
w 234 -233 -212 0
w 235 234 213 1
w 235 234 -213 0
w 235 -234 213 0
w 235 -234 -213 1
w 236 235 214 0.0766647
w 236 235 -214 0.39521
w 236 -235 214 0.956911
w 236 -235 -214 0.755193
w 237 236 215 0.180327
w 237 236 -215 0.752431
w 237 -236 215 0.0912704
w 237 -236 -215 0.924473
w 238 237 216 0.357206
w 238 237 -216 0.378256
w 238 -237 216 0.525834
w 238 -237 -216 0.382953
w 239 238 217 1
w 239 238 -217 0
w 239 -238 217 0
w 239 -238 -217 0
w 240 239 218 0.0763911
w 240 239 -218 0.662193
w 240 -239 218 0.667801
w 240 -239 -218 0.192691
w 241 240 219 0
w 241 240 -219 0
w 241 -240 219 1
w 241 -240 -219 0
w 242 241 220 0
w 242 241 -220 1
w 242 -241 220 0
w 242 -241 -220 0
w 243 221 0
w 243 -221 1
w 244 243 222 0.776996
w 244 243 -222 0.046838
w 244 -243 222 0.778322
w 244 -243 -222 0.134202
w 245 244 223 1
w 245 244 -223 0
w 245 -244 223 0
w 245 -244 -223 0
w 246 245 224 0
w 246 245 -224 0
w 246 -245 224 1
w 246 -245 -224 1
w 247 246 225 1
w 247 246 -225 0
w 247 -246 225 1
w 247 -246 -225 1
w 248 247 226 0
w 248 247 -226 1
w 248 -247 226 0
w 248 -247 -226 1
w 249 248 227 0
w 249 248 -227 1
w 249 -248 227 1
w 249 -248 -227 0
w 250 249 228 0.164905
w 250 249 -228 0.744769
w 250 -249 228 0.0247124
w 250 -249 -228 0.943228
w 251 250 229 0.449807
w 251 250 -229 0.247383
w 251 -250 229 0.396127
w 251 -250 -229 0.459622
w 252 251 230 0.73237
w 252 251 -230 0.415674
w 252 -251 230 0.974478
w 252 -251 -230 0.934385
w 253 252 231 0
w 253 252 -231 1
w 253 -252 231 0
w 253 -252 -231 1
w 254 253 232 0
w 254 253 -232 1
w 254 -253 232 0
w 254 -253 -232 0
w 255 254 233 0
w 255 254 -233 0
w 255 -254 233 0
w 255 -254 -233 1
w 256 255 234 1
w 256 255 -234 0
w 256 -255 234 0
w 256 -255 -234 0
w 257 256 235 0.0537058
w 257 256 -235 0.517909
w 257 -256 235 0.0341801
w 257 -256 -235 0.449832
w 258 257 236 0.0328985
w 258 257 -236 0.182202
w 258 -257 236 0.393205
w 258 -257 -236 0.00737628
w 259 258 237 1
w 259 258 -237 0
w 259 -258 237 0
w 259 -258 -237 1
w 260 259 238 0.277445
w 260 259 -238 0.230137
w 260 -259 238 0.284535
w 260 -259 -238 0.466463
w 261 260 239 1
w 261 260 -239 0
w 261 -260 239 1
w 261 -260 -239 1
w 262 261 240 0
w 262 261 -240 0
w 262 -261 240 1
w 262 -261 -240 0
w 263 262 241 1
w 263 262 -241 0
w 263 -262 241 1
w 263 -262 -241 1
w 264 263 242 1
w 264 263 -242 0
w 264 -263 242 0
w 264 -263 -242 1
w 265 243 0
w 265 -243 1
w 266 265 244 0.200289
w 266 265 -244 0.916086
w 266 -265 244 0.835711
w 266 -265 -244 0.477734
w 267 266 245 0
w 267 266 -245 1
w 267 -266 245 0
w 267 -266 -245 1
w 268 267 246 0.428974
w 268 267 -246 0.174845
w 268 -267 246 0.311702
w 268 -267 -246 0.731411
w 269 268 247 0.678355
w 269 268 -247 0.208582
w 269 -268 247 0.449841
w 269 -268 -247 0.831805
w 270 269 248 0
w 270 269 -248 0
w 270 -269 248 1
w 270 -269 -248 1
w 271 270 249 0
w 271 270 -249 1
w 271 -270 249 0
w 271 -270 -249 1
w 272 271 250 0.315578
w 272 271 -250 0.362867
w 272 -271 250 0.684084
w 272 -271 -250 0.151289
w 273 272 251 0.830307
w 273 272 -251 0.271535
w 273 -272 251 0.784799
w 273 -272 -251 0.386809
w 274 273 252 0.573417
w 274 273 -252 0.815784
w 274 -273 252 0.0611669
w 274 -273 -252 0.885118
w 275 274 253 0
w 275 274 -253 1
w 275 -274 253 1
w 275 -274 -253 0
w 276 275 254 1
w 276 275 -254 0
w 276 -275 254 1
w 276 -275 -254 1
w 277 276 255 0
w 277 276 -255 1
w 277 -276 255 0
w 277 -276 -255 0
w 278 277 256 0
w 278 277 -256 1
w 278 -277 256 0
w 278 -277 -256 1
w 279 278 257 1
w 279 278 -257 1
w 279 -278 257 0
w 279 -278 -257 1
w 280 279 258 0.747266
w 280 279 -258 0.822743
w 280 -279 258 0.586351
w 280 -279 -258 0.808433
w 281 280 259 0
w 281 280 -259 1
w 281 -280 259 1
w 281 -280 -259 1
w 282 281 260 0.666612
w 282 281 -260 0.384557
w 282 -281 260 0.865788
w 282 -281 -260 0.081324
w 283 282 261 0
w 283 282 -261 1
w 283 -282 261 1
w 283 -282 -261 0
w 284 283 262 0.959499
w 284 283 -262 0.57141
w 284 -283 262 0.29666
w 284 -283 -262 0.583426
w 285 284 263 1
w 285 284 -263 0
w 285 -284 263 1
w 285 -284 -263 1
w 286 285 264 1
w 286 285 -264 0
w 286 -285 264 0
w 286 -285 -264 0
w 287 265 0
w 287 -265 1
w 288 287 266 0.950601
w 288 287 -266 0.0992168
w 288 -287 266 0.888405
w 288 -287 -266 0.887792
w 289 288 267 0.272962
w 289 288 -267 0.75358
w 289 -288 267 0.847153
w 289 -288 -267 0.872921
w 290 289 268 0
w 290 289 -268 0
w 290 -289 268 0
w 290 -289 -268 1
w 291 290 269 1
w 291 290 -269 1
w 291 -290 269 0
w 291 -290 -269 0
w 292 291 270 1
w 292 291 -270 0
w 292 -291 270 1
w 292 -291 -270 0
w 293 292 271 0.57954
w 293 292 -271 0.40591
w 293 -292 271 0.168418
w 293 -292 -271 0.407422
w 294 293 272 1
w 294 293 -272 0
w 294 -293 272 1
w 294 -293 -272 0
w 295 294 273 0
w 295 294 -273 0
w 295 -294 273 0
w 295 -294 -273 1
w 296 295 274 1
w 296 295 -274 0
w 296 -295 274 1
w 296 -295 -274 1
w 297 296 275 0.882814
w 297 296 -275 0.655786
w 297 -296 275 0.551217
w 297 -296 -275 0.507233
w 298 297 276 0.812403
w 298 297 -276 0.878663
w 298 -297 276 0.277544
w 298 -297 -276 0.352776
w 299 298 277 0
w 299 298 -277 1
w 299 -298 277 0
w 299 -298 -277 0
w 300 299 278 0
w 300 299 -278 1
w 300 -299 278 0
w 300 -299 -278 0
w 301 300 279 1
w 301 300 -279 0
w 301 -300 279 0
w 301 -300 -279 1
w 302 301 280 0.473353
w 302 301 -280 0.0845991
w 302 -301 280 0.0104694
w 302 -301 -280 0.0148537
w 303 302 281 0.893283
w 303 302 -281 0.67064
w 303 -302 281 0.434464
w 303 -302 -281 0.400516
w 304 303 282 0
w 304 303 -282 1
w 304 -303 282 1
w 304 -303 -282 1
w 305 304 283 1
w 305 304 -283 0
w 305 -304 283 0
w 305 -304 -283 0
w 306 305 284 0.658944
w 306 305 -284 0.979084
w 306 -305 284 0.00677084
w 306 -305 -284 0.702557
w 307 306 285 0
w 307 306 -285 0
w 307 -306 285 0
w 307 -306 -285 1
w 308 307 286 0
w 308 307 -286 0
w 308 -307 286 1
w 308 -307 -286 1
w 309 287 1
w 309 -287 0
w 310 309 288 1
w 310 309 -288 0
w 310 -309 288 0
w 310 -309 -288 0
w 311 310 289 0
w 311 310 -289 0
w 311 -310 289 1
w 311 -310 -289 0
w 312 311 290 1
w 312 311 -290 0
w 312 -311 290 1
w 312 -311 -290 0
w 313 312 291 1
w 313 312 -291 1
w 313 -312 291 0
w 313 -312 -291 1
w 314 313 292 0
w 314 313 -292 1
w 314 -313 292 0
w 314 -313 -292 0
w 315 314 293 0
w 315 314 -293 1
w 315 -314 293 0
w 315 -314 -293 1
w 316 315 294 0
w 316 315 -294 0
w 316 -315 294 1
w 316 -315 -294 0
w 317 316 295 0.0782603
w 317 316 -295 0.803235
w 317 -316 295 0.72524
w 317 -316 -295 0.417056
w 318 317 296 0
w 318 317 -296 0
w 318 -317 296 1
w 318 -317 -296 1
w 319 318 297 0.744513
w 319 318 -297 0.728124
w 319 -318 297 0.185532
w 319 -318 -297 0.496057
w 320 319 298 0
w 320 319 -298 1
w 320 -319 298 0
w 320 -319 -298 1
w 321 320 299 1
w 321 320 -299 1
w 321 -320 299 0
w 321 -320 -299 1
w 322 321 300 0.280876
w 322 321 -300 0.0867834
w 322 -321 300 0.250934
w 322 -321 -300 0.0438912
w 323 322 301 0
w 323 322 -301 0
w 323 -322 301 0
w 323 -322 -301 1
w 324 323 302 1
w 324 323 -302 1
w 324 -323 302 0
w 324 -323 -302 0
w 325 324 303 0
w 325 324 -303 0
w 325 -324 303 0
w 325 -324 -303 1
w 326 325 304 0.593778
w 326 325 -304 0.169269
w 326 -325 304 0.82564
w 326 -325 -304 0.61043
w 327 326 305 0
w 327 326 -305 1
w 327 -326 305 1
w 327 -326 -305 1
w 328 327 306 1
w 328 327 -306 1
w 328 -327 306 0
w 328 -327 -306 1
w 329 328 307 0
w 329 328 -307 0
w 329 -328 307 1
w 329 -328 -307 1
w 330 329 308 0
w 330 329 -308 0
w 330 -329 308 1
w 330 -329 -308 0
w 331 309 0
w 331 -309 1
w 332 331 310 1
w 332 331 -310 0
w 332 -331 310 0
w 332 -331 -310 1
w 333 332 311 0
w 333 332 -311 1
w 333 -332 311 0
w 333 -332 -311 1
w 334 333 312 1
w 334 333 -312 0
w 334 -333 312 1
w 334 -333 -312 0
w 335 334 313 0
w 335 334 -313 1
w 335 -334 313 1
w 335 -334 -313 1
w 336 335 314 1
w 336 335 -314 0
w 336 -335 314 1
w 336 -335 -314 0
w 337 336 315 1
w 337 336 -315 0
w 337 -336 315 1
w 337 -336 -315 0
w 338 337 316 0
w 338 337 -316 1
w 338 -337 316 0
w 338 -337 -316 0
w 339 338 317 0
w 339 338 -317 0
w 339 -338 317 1
w 339 -338 -317 0
w 340 339 318 1
w 340 339 -318 1
w 340 -339 318 0
w 340 -339 -318 0
w 341 340 319 1
w 341 340 -319 0
w 341 -340 319 1
w 341 -340 -319 0
w 342 341 320 0
w 342 341 -320 1
w 342 -341 320 1
w 342 -341 -320 1
w 343 342 321 0
w 343 342 -321 1
w 343 -342 321 0
w 343 -342 -321 0
w 344 343 322 0
w 344 343 -322 1
w 344 -343 322 0
w 344 -343 -322 0
w 345 344 323 0.676155
w 345 344 -323 0.321069
w 345 -344 323 0.896959
w 345 -344 -323 0.635047
w 346 345 324 0
w 346 345 -324 0
w 346 -345 324 1
w 346 -345 -324 0
w 347 346 325 0
w 347 346 -325 0
w 347 -346 325 1
w 347 -346 -325 1
w 348 347 326 0
w 348 347 -326 0
w 348 -347 326 1
w 348 -347 -326 1
w 349 348 327 1
w 349 348 -327 0
w 349 -348 327 0
w 349 -348 -327 1
w 350 349 328 0
w 350 349 -328 0
w 350 -349 328 1
w 350 -349 -328 0
w 351 350 329 1
w 351 350 -329 1
w 351 -350 329 0
w 351 -350 -329 1
w 352 351 330 1
w 352 351 -330 1
w 352 -351 330 0
w 352 -351 -330 0
w 353 331 1
w 353 -331 0
w 354 353 332 0
w 354 353 -332 0
w 354 -353 332 1
w 354 -353 -332 0
w 355 354 333 1
w 355 354 -333 0
w 355 -354 333 1
w 355 -354 -333 0
w 356 355 334 1
w 356 355 -334 0
w 356 -355 334 0
w 356 -355 -334 0
w 357 356 335 1
w 357 356 -335 0
w 357 -356 335 1
w 357 -356 -335 1
w 358 357 336 0.850876
w 358 357 -336 0.417414
w 358 -357 336 0.16963
w 358 -357 -336 0.913639
w 359 358 337 0.318611
w 359 358 -337 0.505258
w 359 -358 337 0.529257
w 359 -358 -337 0.0888048
w 360 359 338 0
w 360 359 -338 1
w 360 -359 338 0
w 360 -359 -338 0
w 361 360 339 1
w 361 360 -339 1
w 361 -360 339 0
w 361 -360 -339 0
w 362 361 340 0
w 362 361 -340 1
w 362 -361 340 1
w 362 -361 -340 0
w 363 362 341 1
w 363 362 -341 0
w 363 -362 341 0
w 363 -362 -341 0
w 364 363 342 1
w 364 363 -342 0
w 364 -363 342 1
w 364 -363 -342 1
w 365 364 343 0
w 365 364 -343 1
w 365 -364 343 0
w 365 -364 -343 0
w 366 365 344 1
w 366 365 -344 0
w 366 -365 344 1
w 366 -365 -344 1
w 367 366 345 1
w 367 366 -345 0
w 367 -366 345 1
w 367 -366 -345 1
w 368 367 346 0
w 368 367 -346 0
w 368 -367 346 1
w 368 -367 -346 0
w 369 368 347 1
w 369 368 -347 0
w 369 -368 347 1
w 369 -368 -347 0
w 370 369 348 1
w 370 369 -348 0
w 370 -369 348 0
w 370 -369 -348 0
w 371 370 349 1
w 371 370 -349 1
w 371 -370 349 1
w 371 -370 -349 0
w 372 371 350 1
w 372 371 -350 0
w 372 -371 350 0
w 372 -371 -350 1
w 373 372 351 0.90261
w 373 372 -351 0.0274134
w 373 -372 351 0.568928
w 373 -372 -351 0.507807
w 374 373 352 1
w 374 373 -352 1
w 374 -373 352 0
w 374 -373 -352 0
w 375 353 0
w 375 -353 1
w 376 375 354 0.0686244
w 376 375 -354 0.276657
w 376 -375 354 0.101829
w 376 -375 -354 0.383009
w 377 376 355 0
w 377 376 -355 1
w 377 -376 355 1
w 377 -376 -355 1
w 378 377 356 0
w 378 377 -356 0
w 378 -377 356 1
w 378 -377 -356 1
w 379 378 357 1
w 379 378 -357 1
w 379 -378 357 0
w 379 -378 -357 1
w 380 379 358 0.0753591
w 380 379 -358 0.149585
w 380 -379 358 0.378472
w 380 -379 -358 0.431969
w 381 380 359 1
w 381 380 -359 1
w 381 -380 359 0
w 381 -380 -359 0
w 382 381 360 1
w 382 381 -360 0
w 382 -381 360 1
w 382 -381 -360 1
w 383 382 361 0.0386952
w 383 382 -361 0.794102
w 383 -382 361 0.0988097
w 383 -382 -361 0.86218
w 384 383 362 0
w 384 383 -362 1
w 384 -383 362 1
w 384 -383 -362 1
w 385 384 363 0.421209
w 385 384 -363 0.928142
w 385 -384 363 0.879877
w 385 -384 -363 0.469155
w 386 385 364 0
w 386 385 -364 0
w 386 -385 364 1
w 386 -385 -364 1
w 387 386 365 0.690358
w 387 386 -365 0.292804
w 387 -386 365 0.388375
w 387 -386 -365 0.161802
w 388 387 366 0
w 388 387 -366 1
w 388 -387 366 0
w 388 -387 -366 1
w 389 388 367 1
w 389 388 -367 1
w 389 -388 367 1
w 389 -388 -367 0
w 390 389 368 1
w 390 389 -368 0
w 390 -389 368 0
w 390 -389 -368 0
w 391 390 369 1
w 391 390 -369 1
w 391 -390 369 1
w 391 -390 -369 0
w 392 391 370 0.772599
w 392 391 -370 0.195555
w 392 -391 370 0.491968
w 392 -391 -370 0.901615
w 393 392 371 1
w 393 392 -371 1
w 393 -392 371 0
w 393 -392 -371 1
w 394 393 372 0.51599
w 394 393 -372 0.948145
w 394 -393 372 0.895925
w 394 -393 -372 0.315429
w 395 394 373 0
w 395 394 -373 0
w 395 -394 373 0
w 395 -394 -373 1
w 396 395 374 0.0445154
w 396 395 -374 0.905824
w 396 -395 374 0.0842323
w 396 -395 -374 0.805192
w 397 375 1
w 397 -375 0
w 398 397 376 0.627257
w 398 397 -376 0.248468
w 398 -397 376 0.638119
w 398 -397 -376 0.460842
w 399 398 377 0
w 399 398 -377 1
w 399 -398 377 1
w 399 -398 -377 0
w 400 399 378 1
w 400 399 -378 0
w 400 -399 378 0
w 400 -399 -378 1
w 401 400 379 1
w 401 400 -379 1
w 401 -400 379 1
w 401 -400 -379 0
w 402 401 380 1
w 402 401 -380 1
w 402 -401 380 0
w 402 -401 -380 0
w 403 402 381 0
w 403 402 -381 0
w 403 -402 381 1
w 403 -402 -381 1
w 404 403 382 0
w 404 403 -382 0
w 404 -403 382 0
w 404 -403 -382 1
w 405 404 383 0.870563
w 405 404 -383 0.570206
w 405 -404 383 0.90784
w 405 -404 -383 0.876274
w 406 405 384 1
w 406 405 -384 0
w 406 -405 384 0
w 406 -405 -384 0
w 407 406 385 1
w 407 406 -385 1
w 407 -406 385 0
w 407 -406 -385 1
w 408 407 386 1
w 408 407 -386 0
w 408 -407 386 0
w 408 -407 -386 0
w 409 408 387 0.36735
w 409 408 -387 0.715812
w 409 -408 387 0.510422
w 409 -408 -387 0.0829738
w 410 409 388 1
w 410 409 -388 0
w 410 -409 388 1
w 410 -409 -388 1
w 411 410 389 1
w 411 410 -389 0
w 411 -410 389 0
w 411 -410 -389 0
w 412 411 390 1
w 412 411 -390 0
w 412 -411 390 0
w 412 -411 -390 1
w 413 412 391 0.356542
w 413 412 -391 0.771055
w 413 -412 391 0.787271
w 413 -412 -391 0.492174
w 414 413 392 1
w 414 413 -392 1
w 414 -413 392 0
w 414 -413 -392 1
w 415 414 393 0
w 415 414 -393 1
w 415 -414 393 1
w 415 -414 -393 1
w 416 415 394 0
w 416 415 -394 1
w 416 -415 394 1
w 416 -415 -394 1
w 417 416 395 1
w 417 416 -395 0
w 417 -416 395 0
w 417 -416 -395 0
w 418 417 396 0.573248
w 418 417 -396 0.736831
w 418 -417 396 0.560561
w 418 -417 -396 0.516607
w 419 397 0
w 419 -397 1
w 420 419 398 1
w 420 419 -398 1
w 420 -419 398 0
w 420 -419 -398 0
w 421 420 399 0
w 421 420 -399 1
w 421 -420 399 1
w 421 -420 -399 0
w 422 421 400 0
w 422 421 -400 0
w 422 -421 400 0
w 422 -421 -400 1
w 423 422 401 1
w 423 422 -401 1
w 423 -422 401 1
w 423 -422 -401 0
w 424 423 402 0.99673
w 424 423 -402 0.431493
w 424 -423 402 0.368749
w 424 -423 -402 0.733561
w 425 424 403 0.885356
w 425 424 -403 0.33561
w 425 -424 403 0.909158
w 425 -424 -403 0.173018
w 426 425 404 1
w 426 425 -404 0
w 426 -425 404 0
w 426 -425 -404 0
w 427 426 405 1
w 427 426 -405 0
w 427 -426 405 1
w 427 -426 -405 1
w 428 427 406 1
w 428 427 -406 1
w 428 -427 406 0
w 428 -427 -406 1
w 429 428 407 1
w 429 428 -407 0
w 429 -428 407 0
w 429 -428 -407 0
w 430 429 408 0.640331
w 430 429 -408 0.71084
w 430 -429 408 0.210933
w 430 -429 -408 0.373892
w 431 430 409 0
w 431 430 -409 0
w 431 -430 409 1
w 431 -430 -409 0
w 432 431 410 0
w 432 431 -410 0
w 432 -431 410 0
w 432 -431 -410 1
w 433 432 411 1
w 433 432 -411 0
w 433 -432 411 1
w 433 -432 -411 0
w 434 433 412 0
w 434 433 -412 0
w 434 -433 412 1
w 434 -433 -412 1
w 435 434 413 0
w 435 434 -413 0
w 435 -434 413 1
w 435 -434 -413 0
w 436 435 414 0
w 436 435 -414 1
w 436 -435 414 0
w 436 -435 -414 0
w 437 436 415 0
w 437 436 -415 1
w 437 -436 415 0
w 437 -436 -415 0
w 438 437 416 0.106961
w 438 437 -416 0.0288342
w 438 -437 416 0.765735
w 438 -437 -416 0.954953
w 439 438 417 0
w 439 438 -417 0
w 439 -438 417 1
w 439 -438 -417 0
w 440 439 418 0.537913
w 440 439 -418 0.936836
w 440 -439 418 0.0969763
w 440 -439 -418 0.745365
w 441 419 0
w 441 -419 1
w 442 441 420 1
w 442 441 -420 0
w 442 -441 420 0
w 442 -441 -420 1
w 443 442 421 1
w 443 442 -421 1
w 443 -442 421 1
w 443 -442 -421 0
w 444 443 422 0
w 444 443 -422 1
w 444 -443 422 0
w 444 -443 -422 1
w 445 444 423 1
w 445 444 -423 0
w 445 -444 423 0
w 445 -444 -423 0
w 446 445 424 0
w 446 445 -424 1
w 446 -445 424 0
w 446 -445 -424 1
w 447 446 425 1
w 447 446 -425 1
w 447 -446 425 0
w 447 -446 -425 0
w 448 447 426 0
w 448 447 -426 1
w 448 -447 426 1
w 448 -447 -426 0
w 449 448 427 0.118521
w 449 448 -427 0.447285
w 449 -448 427 0.444116
w 449 -448 -427 0.420327
w 450 449 428 0
w 450 449 -428 0
w 450 -449 428 1
w 450 -449 -428 0
w 451 450 429 1
w 451 450 -429 0
w 451 -450 429 1
w 451 -450 -429 1
w 452 451 430 1
w 452 451 -430 1
w 452 -451 430 0
w 452 -451 -430 1
w 453 452 431 0.695065
w 453 452 -431 0.721669
w 453 -452 431 0.393351
w 453 -452 -431 0.649196
w 454 453 432 1
w 454 453 -432 0
w 454 -453 432 1
w 454 -453 -432 0
w 455 454 433 0.0486894
w 455 454 -433 0.709958
w 455 -454 433 0.244693
w 455 -454 -433 0.469016
w 456 455 434 1
w 456 455 -434 0
w 456 -455 434 0
w 456 -455 -434 1
w 457 456 435 1
w 457 456 -435 1
w 457 -456 435 0
w 457 -456 -435 0
w 458 457 436 0.165117
w 458 457 -436 0.931414
w 458 -457 436 0.161435
w 458 -457 -436 0.471987
w 459 458 437 0
w 459 458 -437 1
w 459 -458 437 0
w 459 -458 -437 1
w 460 459 438 0.348265
w 460 459 -438 0.958193
w 460 -459 438 0.661293
w 460 -459 -438 0.278433
w 461 460 439 0
w 461 460 -439 0
w 461 -460 439 0
w 461 -460 -439 1
w 462 461 440 0.281415
w 462 461 -440 0.709146
w 462 -461 440 0.509481
w 462 -461 -440 0.642463
w 463 441 0.247776
w 463 -441 0.490751
w 464 463 442 1
w 464 463 -442 0
w 464 -463 442 0
w 464 -463 -442 1
w 465 464 443 1
w 465 464 -443 0
w 465 -464 443 1
w 465 -464 -443 1
w 466 465 444 1
w 466 465 -444 1
w 466 -465 444 0
w 466 -465 -444 1
w 467 466 445 1
w 467 466 -445 1
w 467 -466 445 0
w 467 -466 -445 1
w 468 467 446 0
w 468 467 -446 1
w 468 -467 446 1
w 468 -467 -446 0
w 469 468 447 0.370726
w 469 468 -447 0.594545
w 469 -468 447 0.0699842
w 469 -468 -447 0.861477
w 470 469 448 1
w 470 469 -448 0
w 470 -469 448 1
w 470 -469 -448 0
w 471 470 449 0
w 471 470 -449 1
w 471 -470 449 0
w 471 -470 -449 0
w 472 471 450 1
w 472 471 -450 1
w 472 -471 450 0
w 472 -471 -450 1
w 473 472 451 0.487458
w 473 472 -451 0.459338
w 473 -472 451 0.223714
w 473 -472 -451 0.00404676
w 474 473 452 0.231227
w 474 473 -452 0.316774
w 474 -473 452 0.634449
w 474 -473 -452 0.947886
w 475 474 453 1
w 475 474 -453 0
w 475 -474 453 1
w 475 -474 -453 1
w 476 475 454 0.986146
w 476 475 -454 0.572421
w 476 -475 454 0.186203
w 476 -475 -454 0.295071
w 477 476 455 0
w 477 476 -455 0
w 477 -476 455 1
w 477 -476 -455 1
w 478 477 456 0
w 478 477 -456 1
w 478 -477 456 0
w 478 -477 -456 1
w 479 478 457 0
w 479 478 -457 1
w 479 -478 457 1
w 479 -478 -457 0
w 480 479 458 0
w 480 479 -458 1
w 480 -479 458 1
w 480 -479 -458 0
w 481 480 459 0.968343
w 481 480 -459 0.588161
w 481 -480 459 0.96044
w 481 -480 -459 0.834995
w 482 481 460 1
w 482 481 -460 0
w 482 -481 460 1
w 482 -481 -460 1
w 483 482 461 1
w 483 482 -461 0
w 483 -482 461 1
w 483 -482 -461 1
w 484 483 462 1
w 484 483 -462 0
w 484 -483 462 1
w 484 -483 -462 0